20 10
2 2 2 4 2 3 2 3 2 2
29 42 18 29 49 45 28 39 33 23
16 11 28 21 18 9 5 20 15 17
67 79 53 81 59 82 69 79 55 69
80 83 92 86 83 78 73 73 87 86
29 25 33 48 40 37 51 20 27 19
36 39 28 34 32 47 31 23 51 24
77 86 72 79 76 84 79 76 69 87
30 43 38 41 48 31 48 19 48 21
49 53 59 55 81 79 54 80 42 62
87 88 86 92 78 85 90 84 88 92
99 99 98 99 99 99 98 99 99 99
55 72 34 62 40 68 44 41 58 40
84 49 65 89 63 62 56 85 78 72
23 22 22 15 29 7 22 15 8 17
6 5 4 3 4 2 3 4 4 2
18 24 27 11 12 22 17 13 17 21
93 80 88 85 95 85 87 86 84 89
99 99 99 97 99 98 99 99 99 98
47 53 51 46 54 49 40 57 32 44
